NAME : single.12166.tour
COMMENT : Length = 12166
COMMENT : Found by LKH [Keld Helsgaun] Mon Nov 18 14:20:40 2024
TYPE : TOUR
DIMENSION : 21
TOUR_SECTION
1
17
20
19
18
21
14
16
15
3
4
2
6
5
7
8
10
9
11
12
13
-1
EOF
